p cnf 454 1037
196 -149 147 -146 0
-196 149 0
-196 -147 0
-196 146 0
197 -14 12 -11 0
-197 14 0
-197 -12 0
-197 11 0
198 -69 67 -66 0
-198 69 0
-198 -67 0
-198 66 0
199 -41 39 -38 0
-199 41 0
-199 -39 0
-199 38 0
200 -54 52 -51 0
-200 54 0
-200 -52 0
-200 51 0
201 -1 0
-201 1 0
202 -105 103 -102 0
-202 105 0
-202 -103 0
-202 102 0
203 -21 19 -18 0
-203 21 0
-203 -19 0
-203 18 0
204 -173 171 -170 0
-204 173 0
-204 -171 0
-204 170 0
205 -126 124 -123 0
-205 126 0
-205 -124 0
-205 123 0
206 -8 7 -6 0
-206 8 0
-206 -7 0
-206 6 0
207 -30 28 -27 0
-207 30 0
-207 -28 0
-207 27 0
208 -86 84 -83 0
-208 86 0
-208 -84 0
-208 83 0
-2 196 197 198 199 200 201 202 203 204 205 206 207 208 0
2 -196 0
2 -197 0
2 -198 0
2 -199 0
2 -200 0
2 -201 0
2 -202 0
2 -203 0
2 -204 0
2 -205 0
2 -206 0
2 -207 0
2 -208 0
209 -19 -18 0
-209 19 0
-209 18 0
210 -39 -38 0
-210 39 0
-210 38 0
211 -84 -83 0
-211 84 0
-211 83 0
212 -3 -2 0
-212 3 0
-212 2 0
213 -171 -170 0
-213 171 0
-213 170 0
214 -7 -6 0
-214 7 0
-214 6 0
215 -147 -146 0
-215 147 0
-215 146 0
216 -52 -51 0
-216 52 0
-216 51 0
217 -103 -102 0
-217 103 0
-217 102 0
218 -28 -27 0
-218 28 0
-218 27 0
219 -12 -11 0
-219 12 0
-219 11 0
220 -124 -123 0
-220 124 0
-220 123 0
221 -67 -66 0
-221 67 0
-221 66 0
-4 209 210 211 212 213 214 215 216 217 218 219 220 221 0
4 -209 0
4 -210 0
4 -211 0
4 -212 0
4 -213 0
4 -214 0
4 -215 0
4 -216 0
4 -217 0
4 -218 0
4 -219 0
4 -220 0
4 -221 0
222 -107 104 -102 0
-222 107 0
-222 -104 0
-222 102 0
223 -15 13 -11 0
-223 15 0
-223 -13 0
-223 11 0
224 -5 0
-224 5 0
225 -43 40 -38 0
-225 43 0
-225 -40 0
-225 38 0
226 -151 148 -146 0
-226 151 0
-226 -148 0
-226 146 0
227 -88 85 -83 0
-227 88 0
-227 -85 0
-227 83 0
228 -23 20 -18 0
-228 23 0
-228 -20 0
-228 18 0
229 -32 29 -27 0
-229 32 0
-229 -29 0
-229 27 0
230 -71 68 -66 0
-230 71 0
-230 -68 0
-230 66 0
231 -56 53 -51 0
-231 56 0
-231 -53 0
-231 51 0
232 -175 172 -170 0
-232 175 0
-232 -172 0
-232 170 0
233 -128 125 -123 0
-233 128 0
-233 -125 0
-233 123 0
-6 222 223 224 225 226 227 228 229 230 231 232 233 0
6 -222 0
6 -223 0
6 -224 0
6 -225 0
6 -226 0
6 -227 0
6 -228 0
6 -229 0
6 -230 0
6 -231 0
6 -232 0
6 -233 0
234 -8 0
-234 8 0
235 -7 0
-235 7 0
-9 234 235 0
9 -234 0
9 -235 0
236 -153 150 -146 0
-236 153 0
-236 -150 0
-236 146 0
237 -73 70 -66 0
-237 73 0
-237 -70 0
-237 66 0
238 -90 87 -83 0
-238 90 0
-238 -87 0
-238 83 0
239 -34 31 -27 0
-239 34 0
-239 -31 0
-239 27 0
240 -58 55 -51 0
-240 58 0
-240 -55 0
-240 51 0
241 -109 106 -102 0
-241 109 0
-241 -106 0
-241 102 0
242 -10 0
-242 10 0
243 -177 174 -170 0
-243 177 0
-243 -174 0
-243 170 0
244 -130 127 -123 0
-244 130 0
-244 -127 0
-244 123 0
245 -45 42 -38 0
-245 45 0
-245 -42 0
-245 38 0
246 -24 22 -18 0
-246 24 0
-246 -22 0
-246 18 0
-11 236 237 238 239 240 241 242 243 244 245 246 0
11 -236 0
11 -237 0
11 -238 0
11 -239 0
11 -240 0
11 -241 0
11 -242 0
11 -243 0
11 -244 0
11 -245 0
11 -246 0
247 -12 0
-247 12 0
248 -14 0
-248 14 0
-13 247 248 0
13 -247 0
13 -248 0
249 -15 0
-249 15 0
250 -13 0
-250 13 0
-16 249 250 0
16 -249 0
16 -250 0
251 -155 152 -146 0
-251 155 0
-251 -152 0
-251 146 0
252 -179 176 -170 0
-252 179 0
-252 -176 0
-252 170 0
253 -132 129 -123 0
-253 132 0
-253 -129 0
-253 123 0
254 -92 89 -83 0
-254 92 0
-254 -89 0
-254 83 0
255 -17 0
-255 17 0
256 -60 57 -51 0
-256 60 0
-256 -57 0
-256 51 0
257 -35 33 -27 0
-257 35 0
-257 -33 0
-257 27 0
258 -111 108 -102 0
-258 111 0
-258 -108 0
-258 102 0
259 -47 44 -38 0
-259 47 0
-259 -44 0
-259 38 0
260 -75 72 -66 0
-260 75 0
-260 -72 0
-260 66 0
-18 251 252 253 254 255 256 257 258 259 260 0
18 -251 0
18 -252 0
18 -253 0
18 -254 0
18 -255 0
18 -256 0
18 -257 0
18 -258 0
18 -259 0
18 -260 0
261 -19 0
-261 19 0
262 -21 0
-262 21 0
-20 261 262 0
20 -261 0
20 -262 0
263 -23 0
-263 23 0
264 -20 0
-264 20 0
-22 263 264 0
22 -263 0
22 -264 0
265 -22 0
-265 22 0
266 -24 0
-266 24 0
-25 265 266 0
25 -265 0
25 -266 0
267 -113 110 -102 0
-267 113 0
-267 -110 0
-267 102 0
268 -48 46 -38 0
-268 48 0
-268 -46 0
-268 38 0
269 -62 59 -51 0
-269 62 0
-269 -59 0
-269 51 0
270 -94 91 -83 0
-270 94 0
-270 -91 0
-270 83 0
271 -77 74 -66 0
-271 77 0
-271 -74 0
-271 66 0
272 -181 178 -170 0
-272 181 0
-272 -178 0
-272 170 0
273 -134 131 -123 0
-273 134 0
-273 -131 0
-273 123 0
274 -26 0
-274 26 0
275 -157 154 -146 0
-275 157 0
-275 -154 0
-275 146 0
-27 267 268 269 270 271 272 273 274 275 0
27 -267 0
27 -268 0
27 -269 0
27 -270 0
27 -271 0
27 -272 0
27 -273 0
27 -274 0
27 -275 0
276 -28 0
-276 28 0
277 -30 0
-277 30 0
-29 276 277 0
29 -276 0
29 -277 0
278 -32 0
-278 32 0
279 -29 0
-279 29 0
-31 278 279 0
31 -278 0
31 -279 0
280 -31 0
-280 31 0
281 -34 0
-281 34 0
-33 280 281 0
33 -280 0
33 -281 0
282 -35 0
-282 35 0
283 -33 0
-283 33 0
-36 282 283 0
36 -282 0
36 -283 0
284 -159 156 -146 0
-284 159 0
-284 -156 0
-284 146 0
285 -136 133 -123 0
-285 136 0
-285 -133 0
-285 123 0
286 -115 112 -102 0
-286 115 0
-286 -112 0
-286 102 0
287 -183 180 -170 0
-287 183 0
-287 -180 0
-287 170 0
288 -96 93 -83 0
-288 96 0
-288 -93 0
-288 83 0
289 -37 0
-289 37 0
290 -63 61 -51 0
-290 63 0
-290 -61 0
-290 51 0
291 -79 76 -66 0
-291 79 0
-291 -76 0
-291 66 0
-38 284 285 286 287 288 289 290 291 0
38 -284 0
38 -285 0
38 -286 0
38 -287 0
38 -288 0
38 -289 0
38 -290 0
38 -291 0
292 -39 0
-292 39 0
293 -41 0
-293 41 0
-40 292 293 0
40 -292 0
40 -293 0
294 -40 0
-294 40 0
295 -43 0
-295 43 0
-42 294 295 0
42 -294 0
42 -295 0
296 -45 0
-296 45 0
297 -42 0
-297 42 0
-44 296 297 0
44 -296 0
44 -297 0
298 -47 0
-298 47 0
299 -44 0
-299 44 0
-46 298 299 0
46 -298 0
46 -299 0
300 -46 0
-300 46 0
301 -48 0
-301 48 0
-49 300 301 0
49 -300 0
49 -301 0
302 -161 158 -146 0
-302 161 0
-302 -158 0
-302 146 0
303 -50 0
-303 50 0
304 -98 95 -83 0
-304 98 0
-304 -95 0
-304 83 0
305 -138 135 -123 0
-305 138 0
-305 -135 0
-305 123 0
306 -80 78 -66 0
-306 80 0
-306 -78 0
-306 66 0
307 -185 182 -170 0
-307 185 0
-307 -182 0
-307 170 0
308 -117 114 -102 0
-308 117 0
-308 -114 0
-308 102 0
-51 302 303 304 305 306 307 308 0
51 -302 0
51 -303 0
51 -304 0
51 -305 0
51 -306 0
51 -307 0
51 -308 0
309 -54 0
-309 54 0
310 -52 0
-310 52 0
-53 309 310 0
53 -309 0
53 -310 0
311 -53 0
-311 53 0
312 -56 0
-312 56 0
-55 311 312 0
55 -311 0
55 -312 0
313 -55 0
-313 55 0
314 -58 0
-314 58 0
-57 313 314 0
57 -313 0
57 -314 0
315 -60 0
-315 60 0
316 -57 0
-316 57 0
-59 315 316 0
59 -315 0
59 -316 0
317 -62 0
-317 62 0
318 -59 0
-318 59 0
-61 317 318 0
61 -317 0
61 -318 0
319 -61 0
-319 61 0
320 -63 0
-320 63 0
-64 319 320 0
64 -319 0
64 -320 0
321 -65 0
-321 65 0
322 -163 160 -146 0
-322 163 0
-322 -160 0
-322 146 0
323 -99 97 -83 0
-323 99 0
-323 -97 0
-323 83 0
324 -119 116 -102 0
-324 119 0
-324 -116 0
-324 102 0
325 -140 137 -123 0
-325 140 0
-325 -137 0
-325 123 0
326 -187 184 -170 0
-326 187 0
-326 -184 0
-326 170 0
-66 321 322 323 324 325 326 0
66 -321 0
66 -322 0
66 -323 0
66 -324 0
66 -325 0
66 -326 0
327 -67 0
-327 67 0
328 -69 0
-328 69 0
-68 327 328 0
68 -327 0
68 -328 0
329 -68 0
-329 68 0
330 -71 0
-330 71 0
-70 329 330 0
70 -329 0
70 -330 0
331 -70 0
-331 70 0
332 -73 0
-332 73 0
-72 331 332 0
72 -331 0
72 -332 0
333 -72 0
-333 72 0
334 -75 0
-334 75 0
-74 333 334 0
74 -333 0
74 -334 0
335 -77 0
-335 77 0
336 -74 0
-336 74 0
-76 335 336 0
76 -335 0
76 -336 0
337 -76 0
-337 76 0
338 -79 0
-338 79 0
-78 337 338 0
78 -337 0
78 -338 0
339 -80 0
-339 80 0
340 -78 0
-340 78 0
-81 339 340 0
81 -339 0
81 -340 0
341 -165 162 -146 0
-341 165 0
-341 -162 0
-341 146 0
342 -142 139 -123 0
-342 142 0
-342 -139 0
-342 123 0
343 -82 0
-343 82 0
344 -189 186 -170 0
-344 189 0
-344 -186 0
-344 170 0
345 -120 118 -102 0
-345 120 0
-345 -118 0
-345 102 0
-83 341 342 343 344 345 0
83 -341 0
83 -342 0
83 -343 0
83 -344 0
83 -345 0
346 -84 0
-346 84 0
347 -86 0
-347 86 0
-85 346 347 0
85 -346 0
85 -347 0
348 -85 0
-348 85 0
349 -88 0
-349 88 0
-87 348 349 0
87 -348 0
87 -349 0
350 -90 0
-350 90 0
351 -87 0
-351 87 0
-89 350 351 0
89 -350 0
89 -351 0
352 -89 0
-352 89 0
353 -92 0
-353 92 0
-91 352 353 0
91 -352 0
91 -353 0
354 -94 0
-354 94 0
355 -91 0
-355 91 0
-93 354 355 0
93 -354 0
93 -355 0
356 -93 0
-356 93 0
357 -96 0
-357 96 0
-95 356 357 0
95 -356 0
95 -357 0
358 -98 0
-358 98 0
359 -95 0
-359 95 0
-97 358 359 0
97 -358 0
97 -359 0
360 -99 0
-360 99 0
361 -97 0
-361 97 0
-100 360 361 0
100 -360 0
100 -361 0
362 -143 141 -123 0
-362 143 0
-362 -141 0
-362 123 0
363 -167 164 -146 0
-363 167 0
-363 -164 0
-363 146 0
364 -101 0
-364 101 0
365 -191 188 -170 0
-365 191 0
-365 -188 0
-365 170 0
-102 362 363 364 365 0
102 -362 0
102 -363 0
102 -364 0
102 -365 0
366 -105 0
-366 105 0
367 -103 0
-367 103 0
-104 366 367 0
104 -366 0
104 -367 0
368 -107 0
-368 107 0
369 -104 0
-369 104 0
-106 368 369 0
106 -368 0
106 -369 0
370 -106 0
-370 106 0
371 -109 0
-371 109 0
-108 370 371 0
108 -370 0
108 -371 0
372 -111 0
-372 111 0
373 -108 0
-373 108 0
-110 372 373 0
110 -372 0
110 -373 0
374 -110 0
-374 110 0
375 -113 0
-375 113 0
-112 374 375 0
112 -374 0
112 -375 0
376 -112 0
-376 112 0
377 -115 0
-377 115 0
-114 376 377 0
114 -376 0
114 -377 0
378 -117 0
-378 117 0
379 -114 0
-379 114 0
-116 378 379 0
116 -378 0
116 -379 0
380 -119 0
-380 119 0
381 -116 0
-381 116 0
-118 380 381 0
118 -380 0
118 -381 0
382 -118 0
-382 118 0
383 -120 0
-383 120 0
-121 382 383 0
121 -382 0
121 -383 0
384 -122 0
-384 122 0
385 -168 166 -146 0
-385 168 0
-385 -166 0
-385 146 0
386 -193 190 -170 0
-386 193 0
-386 -190 0
-386 170 0
-123 384 385 386 0
123 -384 0
123 -385 0
123 -386 0
387 -124 0
-387 124 0
388 -126 0
-388 126 0
-125 387 388 0
125 -387 0
125 -388 0
389 -128 0
-389 128 0
390 -125 0
-390 125 0
-127 389 390 0
127 -389 0
127 -390 0
391 -127 0
-391 127 0
392 -130 0
-392 130 0
-129 391 392 0
129 -391 0
129 -392 0
393 -132 0
-393 132 0
394 -129 0
-394 129 0
-131 393 394 0
131 -393 0
131 -394 0
395 -134 0
-395 134 0
396 -131 0
-396 131 0
-133 395 396 0
133 -395 0
133 -396 0
397 -136 0
-397 136 0
398 -133 0
-398 133 0
-135 397 398 0
135 -397 0
135 -398 0
399 -135 0
-399 135 0
400 -138 0
-400 138 0
-137 399 400 0
137 -399 0
137 -400 0
401 -140 0
-401 140 0
402 -137 0
-402 137 0
-139 401 402 0
139 -401 0
139 -402 0
403 -142 0
-403 142 0
404 -139 0
-404 139 0
-141 403 404 0
141 -403 0
141 -404 0
405 -141 0
-405 141 0
406 -143 0
-406 143 0
-144 405 406 0
144 -405 0
144 -406 0
407 -194 192 -170 0
-407 194 0
-407 -192 0
-407 170 0
408 -145 0
-408 145 0
-146 407 408 0
146 -407 0
146 -408 0
409 -147 0
-409 147 0
410 -149 0
-410 149 0
-148 409 410 0
148 -409 0
148 -410 0
411 -151 0
-411 151 0
412 -148 0
-412 148 0
-150 411 412 0
150 -411 0
150 -412 0
413 -153 0
-413 153 0
414 -150 0
-414 150 0
-152 413 414 0
152 -413 0
152 -414 0
415 -152 0
-415 152 0
416 -155 0
-416 155 0
-154 415 416 0
154 -415 0
154 -416 0
417 -157 0
-417 157 0
418 -154 0
-418 154 0
-156 417 418 0
156 -417 0
156 -418 0
419 -156 0
-419 156 0
420 -159 0
-420 159 0
-158 419 420 0
158 -419 0
158 -420 0
421 -158 0
-421 158 0
422 -161 0
-422 161 0
-160 421 422 0
160 -421 0
160 -422 0
423 -160 0
-423 160 0
424 -163 0
-424 163 0
-162 423 424 0
162 -423 0
162 -424 0
425 -165 0
-425 165 0
426 -162 0
-426 162 0
-164 425 426 0
164 -425 0
164 -426 0
427 -164 0
-427 164 0
428 -167 0
-428 167 0
-166 427 428 0
166 -427 0
166 -428 0
429 -168 0
-429 168 0
430 -166 0
-430 166 0
-169 429 430 0
169 -429 0
169 -430 0
431 -171 0
-431 171 0
432 -173 0
-432 173 0
-172 431 432 0
172 -431 0
172 -432 0
433 -172 0
-433 172 0
434 -175 0
-434 175 0
-174 433 434 0
174 -433 0
174 -434 0
435 -177 0
-435 177 0
436 -174 0
-436 174 0
-176 435 436 0
176 -435 0
176 -436 0
437 -179 0
-437 179 0
438 -176 0
-438 176 0
-178 437 438 0
178 -437 0
178 -438 0
439 -178 0
-439 178 0
440 -181 0
-440 181 0
-180 439 440 0
180 -439 0
180 -440 0
441 -180 0
-441 180 0
442 -183 0
-442 183 0
-182 441 442 0
182 -441 0
182 -442 0
443 -185 0
-443 185 0
444 -182 0
-444 182 0
-184 443 444 0
184 -443 0
184 -444 0
445 -187 0
-445 187 0
446 -184 0
-446 184 0
-186 445 446 0
186 -445 0
186 -446 0
447 -189 0
-447 189 0
448 -186 0
-448 186 0
-188 447 448 0
188 -447 0
188 -448 0
449 -188 0
-449 188 0
450 -191 0
-450 191 0
-190 449 450 0
190 -449 0
190 -450 0
451 -193 0
-451 193 0
452 -190 0
-452 190 0
-192 451 452 0
192 -451 0
192 -452 0
453 -192 0
-453 192 0
454 -194 0
-454 194 0
-195 453 454 0
195 -453 0
195 -454 0
c p weight 1 0.5 0
c p weight -1 0.5 0
c p weight 2 1.0 0
c p weight -2 1.0 0
c p weight 3 1.0 0
c p weight -3 0.0 0
c p weight 4 1.0 0
c p weight -4 0.0 0
c p weight 5 0.5 0
c p weight -5 0.5 0
c p weight 6 1.0 0
c p weight -6 1.0 0
c p weight 7 0.5 0
c p weight -7 0.5 0
c p weight 8 1.0 0
c p weight -8 0.0 0
c p weight 9 1.0 0
c p weight -9 1.0 0
c p weight 10 0.5 0
c p weight -10 0.5 0
c p weight 11 1.0 0
c p weight -11 1.0 0
c p weight 12 0.3333333333333333 0
c p weight -12 0.6666666666666667 0
c p weight 13 1.0 0
c p weight -13 1.0 0
c p weight 14 0.49999999999999994 0
c p weight -14 0.5 0
c p weight 15 0.9999999999999997 0
c p weight -15 3.3306690738754696e-16 0
c p weight 16 1.0 0
c p weight -16 1.0 0
c p weight 17 0.5 0
c p weight -17 0.5 0
c p weight 18 1.0 0
c p weight -18 1.0 0
c p weight 19 0.25 0
c p weight -19 0.75 0
c p weight 20 1.0 0
c p weight -20 1.0 0
c p weight 21 0.3333333333333333 0
c p weight -21 0.6666666666666667 0
c p weight 22 1.0 0
c p weight -22 1.0 0
c p weight 23 0.5 0
c p weight -23 0.5 0
c p weight 24 1.0 0
c p weight -24 0.0 0
c p weight 25 1.0 0
c p weight -25 1.0 0
c p weight 26 0.5 0
c p weight -26 0.5 0
c p weight 27 1.0 0
c p weight -27 1.0 0
c p weight 28 0.2 0
c p weight -28 0.8 0
c p weight 29 1.0 0
c p weight -29 1.0 0
c p weight 30 0.25 0
c p weight -30 0.75 0
c p weight 31 1.0 0
c p weight -31 1.0 0
c p weight 32 0.3333333333333333 0
c p weight -32 0.6666666666666667 0
c p weight 33 1.0 0
c p weight -33 1.0 0
c p weight 34 0.49999999999999994 0
c p weight -34 0.5 0
c p weight 35 0.9999999999999998 0
c p weight -35 2.220446049250313e-16 0
c p weight 36 1.0 0
c p weight -36 1.0 0
c p weight 37 0.5 0
c p weight -37 0.5 0
c p weight 38 1.0 0
c p weight -38 1.0 0
c p weight 39 0.16666666666666666 0
c p weight -39 0.8333333333333334 0
c p weight 40 1.0 0
c p weight -40 1.0 0
c p weight 41 0.19999999999999998 0
c p weight -41 0.8 0
c p weight 42 1.0 0
c p weight -42 1.0 0
c p weight 43 0.24999999999999997 0
c p weight -43 0.75 0
c p weight 44 1.0 0
c p weight -44 1.0 0
c p weight 45 0.33333333333333326 0
c p weight -45 0.6666666666666667 0
c p weight 46 1.0 0
c p weight -46 1.0 0
c p weight 47 0.4999999999999998 0
c p weight -47 0.5000000000000002 0
c p weight 48 0.999999999999999 0
c p weight -48 9.992007221626409e-16 0
c p weight 49 1.0 0
c p weight -49 1.0 0
c p weight 50 0.5 0
c p weight -50 0.5 0
c p weight 51 1.0 0
c p weight -51 1.0 0
c p weight 52 0.14285714285714285 0
c p weight -52 0.8571428571428572 0
c p weight 53 1.0 0
c p weight -53 1.0 0
c p weight 54 0.16666666666666666 0
c p weight -54 0.8333333333333334 0
c p weight 55 1.0 0
c p weight -55 1.0 0
c p weight 56 0.19999999999999996 0
c p weight -56 0.8 0
c p weight 57 1.0 0
c p weight -57 1.0 0
c p weight 58 0.24999999999999992 0
c p weight -58 0.7500000000000001 0
c p weight 59 1.0 0
c p weight -59 1.0 0
c p weight 60 0.33333333333333315 0
c p weight -60 0.6666666666666669 0
c p weight 61 1.0 0
c p weight -61 1.0 0
c p weight 62 0.4999999999999996 0
c p weight -62 0.5000000000000004 0
c p weight 63 0.9999999999999984 0
c p weight -63 1.5543122344752192e-15 0
c p weight 64 1.0 0
c p weight -64 1.0 0
c p weight 65 0.5 0
c p weight -65 0.5 0
c p weight 66 1.0 0
c p weight -66 1.0 0
c p weight 67 0.125 0
c p weight -67 0.875 0
c p weight 68 1.0 0
c p weight -68 1.0 0
c p weight 69 0.14285714285714285 0
c p weight -69 0.8571428571428572 0
c p weight 70 1.0 0
c p weight -70 1.0 0
c p weight 71 0.16666666666666666 0
c p weight -71 0.8333333333333334 0
c p weight 72 1.0 0
c p weight -72 1.0 0
c p weight 73 0.2 0
c p weight -73 0.8 0
c p weight 74 1.0 0
c p weight -74 1.0 0
c p weight 75 0.25 0
c p weight -75 0.75 0
c p weight 76 1.0 0
c p weight -76 1.0 0
c p weight 77 0.3333333333333333 0
c p weight -77 0.6666666666666667 0
c p weight 78 1.0 0
c p weight -78 1.0 0
c p weight 79 0.5 0
c p weight -79 0.5 0
c p weight 80 1.0 0
c p weight -80 0.0 0
c p weight 81 1.0 0
c p weight -81 1.0 0
c p weight 82 0.5 0
c p weight -82 0.5 0
c p weight 83 1.0 0
c p weight -83 1.0 0
c p weight 84 0.1111111111111111 0
c p weight -84 0.8888888888888888 0
c p weight 85 1.0 0
c p weight -85 1.0 0
c p weight 86 0.125 0
c p weight -86 0.875 0
c p weight 87 1.0 0
c p weight -87 1.0 0
c p weight 88 0.14285714285714288 0
c p weight -88 0.8571428571428571 0
c p weight 89 1.0 0
c p weight -89 1.0 0
c p weight 90 0.16666666666666669 0
c p weight -90 0.8333333333333333 0
c p weight 91 1.0 0
c p weight -91 1.0 0
c p weight 92 0.20000000000000007 0
c p weight -92 0.7999999999999999 0
c p weight 93 1.0 0
c p weight -93 1.0 0
c p weight 94 0.2500000000000001 0
c p weight -94 0.7499999999999999 0
c p weight 95 1.0 0
c p weight -95 1.0 0
c p weight 96 0.3333333333333335 0
c p weight -96 0.6666666666666665 0
c p weight 97 1.0 0
c p weight -97 1.0 0
c p weight 98 0.5000000000000003 0
c p weight -98 0.49999999999999967 0
c p weight 99 1.0 0
c p weight -99 0.0 0
c p weight 100 1.0 0
c p weight -100 1.0 0
c p weight 101 0.5 0
c p weight -101 0.5 0
c p weight 102 1.0 0
c p weight -102 1.0 0
c p weight 103 0.1 0
c p weight -103 0.9 0
c p weight 104 1.0 0
c p weight -104 1.0 0
c p weight 105 0.11111111111111112 0
c p weight -105 0.8888888888888888 0
c p weight 106 1.0 0
c p weight -106 1.0 0
c p weight 107 0.125 0
c p weight -107 0.875 0
c p weight 108 1.0 0
c p weight -108 1.0 0
c p weight 109 0.14285714285714285 0
c p weight -109 0.8571428571428572 0
c p weight 110 1.0 0
c p weight -110 1.0 0
c p weight 111 0.16666666666666666 0
c p weight -111 0.8333333333333334 0
c p weight 112 1.0 0
c p weight -112 1.0 0
c p weight 113 0.19999999999999996 0
c p weight -113 0.8 0
c p weight 114 1.0 0
c p weight -114 1.0 0
c p weight 115 0.24999999999999994 0
c p weight -115 0.75 0
c p weight 116 1.0 0
c p weight -116 1.0 0
c p weight 117 0.3333333333333332 0
c p weight -117 0.6666666666666667 0
c p weight 118 1.0 0
c p weight -118 1.0 0
c p weight 119 0.49999999999999967 0
c p weight -119 0.5000000000000003 0
c p weight 120 0.9999999999999987 0
c p weight -120 1.3322676295501878e-15 0
c p weight 121 1.0 0
c p weight -121 1.0 0
c p weight 122 0.5 0
c p weight -122 0.5 0
c p weight 123 1.0 0
c p weight -123 1.0 0
c p weight 124 0.09090909090909091 0
c p weight -124 0.9090909090909091 0
c p weight 125 1.0 0
c p weight -125 1.0 0
c p weight 126 0.1 0
c p weight -126 0.9 0
c p weight 127 1.0 0
c p weight -127 1.0 0
c p weight 128 0.11111111111111112 0
c p weight -128 0.8888888888888888 0
c p weight 129 1.0 0
c p weight -129 1.0 0
c p weight 130 0.12500000000000003 0
c p weight -130 0.875 0
c p weight 131 1.0 0
c p weight -131 1.0 0
c p weight 132 0.14285714285714288 0
c p weight -132 0.8571428571428571 0
c p weight 133 1.0 0
c p weight -133 1.0 0
c p weight 134 0.1666666666666667 0
c p weight -134 0.8333333333333333 0
c p weight 135 1.0 0
c p weight -135 1.0 0
c p weight 136 0.2000000000000001 0
c p weight -136 0.7999999999999999 0
c p weight 137 1.0 0
c p weight -137 1.0 0
c p weight 138 0.25000000000000017 0
c p weight -138 0.7499999999999998 0
c p weight 139 1.0 0
c p weight -139 1.0 0
c p weight 140 0.33333333333333365 0
c p weight -140 0.6666666666666663 0
c p weight 141 1.0 0
c p weight -141 1.0 0
c p weight 142 0.5000000000000007 0
c p weight -142 0.49999999999999933 0
c p weight 143 1.0 0
c p weight -143 0.0 0
c p weight 144 1.0 0
c p weight -144 1.0 0
c p weight 145 0.5 0
c p weight -145 0.5 0
c p weight 146 1.0 0
c p weight -146 1.0 0
c p weight 147 0.08333333333333333 0
c p weight -147 0.9166666666666666 0
c p weight 148 1.0 0
c p weight -148 1.0 0
c p weight 149 0.09090909090909091 0
c p weight -149 0.9090909090909091 0
c p weight 150 1.0 0
c p weight -150 1.0 0
c p weight 151 0.1 0
c p weight -151 0.9 0
c p weight 152 1.0 0
c p weight -152 1.0 0
c p weight 153 0.11111111111111112 0
c p weight -153 0.8888888888888888 0
c p weight 154 1.0 0
c p weight -154 1.0 0
c p weight 155 0.12500000000000003 0
c p weight -155 0.875 0
c p weight 156 1.0 0
c p weight -156 1.0 0
c p weight 157 0.1428571428571429 0
c p weight -157 0.8571428571428571 0
c p weight 158 1.0 0
c p weight -158 1.0 0
c p weight 159 0.1666666666666667 0
c p weight -159 0.8333333333333333 0
c p weight 160 1.0 0
c p weight -160 1.0 0
c p weight 161 0.20000000000000007 0
c p weight -161 0.7999999999999999 0
c p weight 162 1.0 0
c p weight -162 1.0 0
c p weight 163 0.2500000000000001 0
c p weight -163 0.7499999999999999 0
c p weight 164 1.0 0
c p weight -164 1.0 0
c p weight 165 0.3333333333333335 0
c p weight -165 0.6666666666666665 0
c p weight 166 1.0 0
c p weight -166 1.0 0
c p weight 167 0.5000000000000002 0
c p weight -167 0.4999999999999998 0
c p weight 168 1.0 0
c p weight -168 0.0 0
c p weight 169 1.0 0
c p weight -169 1.0 0
c p weight 170 0.5 0
c p weight -170 0.5 0
c p weight 171 0.07692307692307693 0
c p weight -171 0.9230769230769231 0
c p weight 172 1.0 0
c p weight -172 1.0 0
c p weight 173 0.08333333333333333 0
c p weight -173 0.9166666666666666 0
c p weight 174 1.0 0
c p weight -174 1.0 0
c p weight 175 0.0909090909090909 0
c p weight -175 0.9090909090909091 0
c p weight 176 1.0 0
c p weight -176 1.0 0
c p weight 177 0.09999999999999999 0
c p weight -177 0.9 0
c p weight 178 1.0 0
c p weight -178 1.0 0
c p weight 179 0.11111111111111109 0
c p weight -179 0.888888888888889 0
c p weight 180 1.0 0
c p weight -180 1.0 0
c p weight 181 0.12499999999999996 0
c p weight -181 0.875 0
c p weight 182 1.0 0
c p weight -182 1.0 0
c p weight 183 0.1428571428571428 0
c p weight -183 0.8571428571428572 0
c p weight 184 1.0 0
c p weight -184 1.0 0
c p weight 185 0.16666666666666657 0
c p weight -185 0.8333333333333335 0
c p weight 186 1.0 0
c p weight -186 1.0 0
c p weight 187 0.19999999999999984 0
c p weight -187 0.8000000000000002 0
c p weight 188 1.0 0
c p weight -188 1.0 0
c p weight 189 0.24999999999999978 0
c p weight -189 0.7500000000000002 0
c p weight 190 1.0 0
c p weight -190 1.0 0
c p weight 191 0.3333333333333329 0
c p weight -191 0.6666666666666671 0
c p weight 192 1.0 0
c p weight -192 1.0 0
c p weight 193 0.4999999999999991 0
c p weight -193 0.5000000000000009 0
c p weight 194 0.9999999999999964 0
c p weight -194 3.552713678800501e-15 0
c p weight 195 1.0 0
c p weight -195 1.0 0
c p weight 196 1.0 0
c p weight -196 1.0 0
c p weight 197 1.0 0
c p weight -197 1.0 0
c p weight 198 1.0 0
c p weight -198 1.0 0
c p weight 199 1.0 0
c p weight -199 1.0 0
c p weight 200 1.0 0
c p weight -200 1.0 0
c p weight 201 1.0 0
c p weight -201 1.0 0
c p weight 202 1.0 0
c p weight -202 1.0 0
c p weight 203 1.0 0
c p weight -203 1.0 0
c p weight 204 1.0 0
c p weight -204 1.0 0
c p weight 205 1.0 0
c p weight -205 1.0 0
c p weight 206 1.0 0
c p weight -206 1.0 0
c p weight 207 1.0 0
c p weight -207 1.0 0
c p weight 208 1.0 0
c p weight -208 1.0 0
c p weight 209 1.0 0
c p weight -209 1.0 0
c p weight 210 1.0 0
c p weight -210 1.0 0
c p weight 211 1.0 0
c p weight -211 1.0 0
c p weight 212 1.0 0
c p weight -212 1.0 0
c p weight 213 1.0 0
c p weight -213 1.0 0
c p weight 214 1.0 0
c p weight -214 1.0 0
c p weight 215 1.0 0
c p weight -215 1.0 0
c p weight 216 1.0 0
c p weight -216 1.0 0
c p weight 217 1.0 0
c p weight -217 1.0 0
c p weight 218 1.0 0
c p weight -218 1.0 0
c p weight 219 1.0 0
c p weight -219 1.0 0
c p weight 220 1.0 0
c p weight -220 1.0 0
c p weight 221 1.0 0
c p weight -221 1.0 0
c p weight 222 1.0 0
c p weight -222 1.0 0
c p weight 223 1.0 0
c p weight -223 1.0 0
c p weight 224 1.0 0
c p weight -224 1.0 0
c p weight 225 1.0 0
c p weight -225 1.0 0
c p weight 226 1.0 0
c p weight -226 1.0 0
c p weight 227 1.0 0
c p weight -227 1.0 0
c p weight 228 1.0 0
c p weight -228 1.0 0
c p weight 229 1.0 0
c p weight -229 1.0 0
c p weight 230 1.0 0
c p weight -230 1.0 0
c p weight 231 1.0 0
c p weight -231 1.0 0
c p weight 232 1.0 0
c p weight -232 1.0 0
c p weight 233 1.0 0
c p weight -233 1.0 0
c p weight 234 1.0 0
c p weight -234 1.0 0
c p weight 235 1.0 0
c p weight -235 1.0 0
c p weight 236 1.0 0
c p weight -236 1.0 0
c p weight 237 1.0 0
c p weight -237 1.0 0
c p weight 238 1.0 0
c p weight -238 1.0 0
c p weight 239 1.0 0
c p weight -239 1.0 0
c p weight 240 1.0 0
c p weight -240 1.0 0
c p weight 241 1.0 0
c p weight -241 1.0 0
c p weight 242 1.0 0
c p weight -242 1.0 0
c p weight 243 1.0 0
c p weight -243 1.0 0
c p weight 244 1.0 0
c p weight -244 1.0 0
c p weight 245 1.0 0
c p weight -245 1.0 0
c p weight 246 1.0 0
c p weight -246 1.0 0
c p weight 247 1.0 0
c p weight -247 1.0 0
c p weight 248 1.0 0
c p weight -248 1.0 0
c p weight 249 1.0 0
c p weight -249 1.0 0
c p weight 250 1.0 0
c p weight -250 1.0 0
c p weight 251 1.0 0
c p weight -251 1.0 0
c p weight 252 1.0 0
c p weight -252 1.0 0
c p weight 253 1.0 0
c p weight -253 1.0 0
c p weight 254 1.0 0
c p weight -254 1.0 0
c p weight 255 1.0 0
c p weight -255 1.0 0
c p weight 256 1.0 0
c p weight -256 1.0 0
c p weight 257 1.0 0
c p weight -257 1.0 0
c p weight 258 1.0 0
c p weight -258 1.0 0
c p weight 259 1.0 0
c p weight -259 1.0 0
c p weight 260 1.0 0
c p weight -260 1.0 0
c p weight 261 1.0 0
c p weight -261 1.0 0
c p weight 262 1.0 0
c p weight -262 1.0 0
c p weight 263 1.0 0
c p weight -263 1.0 0
c p weight 264 1.0 0
c p weight -264 1.0 0
c p weight 265 1.0 0
c p weight -265 1.0 0
c p weight 266 1.0 0
c p weight -266 1.0 0
c p weight 267 1.0 0
c p weight -267 1.0 0
c p weight 268 1.0 0
c p weight -268 1.0 0
c p weight 269 1.0 0
c p weight -269 1.0 0
c p weight 270 1.0 0
c p weight -270 1.0 0
c p weight 271 1.0 0
c p weight -271 1.0 0
c p weight 272 1.0 0
c p weight -272 1.0 0
c p weight 273 1.0 0
c p weight -273 1.0 0
c p weight 274 1.0 0
c p weight -274 1.0 0
c p weight 275 1.0 0
c p weight -275 1.0 0
c p weight 276 1.0 0
c p weight -276 1.0 0
c p weight 277 1.0 0
c p weight -277 1.0 0
c p weight 278 1.0 0
c p weight -278 1.0 0
c p weight 279 1.0 0
c p weight -279 1.0 0
c p weight 280 1.0 0
c p weight -280 1.0 0
c p weight 281 1.0 0
c p weight -281 1.0 0
c p weight 282 1.0 0
c p weight -282 1.0 0
c p weight 283 1.0 0
c p weight -283 1.0 0
c p weight 284 1.0 0
c p weight -284 1.0 0
c p weight 285 1.0 0
c p weight -285 1.0 0
c p weight 286 1.0 0
c p weight -286 1.0 0
c p weight 287 1.0 0
c p weight -287 1.0 0
c p weight 288 1.0 0
c p weight -288 1.0 0
c p weight 289 1.0 0
c p weight -289 1.0 0
c p weight 290 1.0 0
c p weight -290 1.0 0
c p weight 291 1.0 0
c p weight -291 1.0 0
c p weight 292 1.0 0
c p weight -292 1.0 0
c p weight 293 1.0 0
c p weight -293 1.0 0
c p weight 294 1.0 0
c p weight -294 1.0 0
c p weight 295 1.0 0
c p weight -295 1.0 0
c p weight 296 1.0 0
c p weight -296 1.0 0
c p weight 297 1.0 0
c p weight -297 1.0 0
c p weight 298 1.0 0
c p weight -298 1.0 0
c p weight 299 1.0 0
c p weight -299 1.0 0
c p weight 300 1.0 0
c p weight -300 1.0 0
c p weight 301 1.0 0
c p weight -301 1.0 0
c p weight 302 1.0 0
c p weight -302 1.0 0
c p weight 303 1.0 0
c p weight -303 1.0 0
c p weight 304 1.0 0
c p weight -304 1.0 0
c p weight 305 1.0 0
c p weight -305 1.0 0
c p weight 306 1.0 0
c p weight -306 1.0 0
c p weight 307 1.0 0
c p weight -307 1.0 0
c p weight 308 1.0 0
c p weight -308 1.0 0
c p weight 309 1.0 0
c p weight -309 1.0 0
c p weight 310 1.0 0
c p weight -310 1.0 0
c p weight 311 1.0 0
c p weight -311 1.0 0
c p weight 312 1.0 0
c p weight -312 1.0 0
c p weight 313 1.0 0
c p weight -313 1.0 0
c p weight 314 1.0 0
c p weight -314 1.0 0
c p weight 315 1.0 0
c p weight -315 1.0 0
c p weight 316 1.0 0
c p weight -316 1.0 0
c p weight 317 1.0 0
c p weight -317 1.0 0
c p weight 318 1.0 0
c p weight -318 1.0 0
c p weight 319 1.0 0
c p weight -319 1.0 0
c p weight 320 1.0 0
c p weight -320 1.0 0
c p weight 321 1.0 0
c p weight -321 1.0 0
c p weight 322 1.0 0
c p weight -322 1.0 0
c p weight 323 1.0 0
c p weight -323 1.0 0
c p weight 324 1.0 0
c p weight -324 1.0 0
c p weight 325 1.0 0
c p weight -325 1.0 0
c p weight 326 1.0 0
c p weight -326 1.0 0
c p weight 327 1.0 0
c p weight -327 1.0 0
c p weight 328 1.0 0
c p weight -328 1.0 0
c p weight 329 1.0 0
c p weight -329 1.0 0
c p weight 330 1.0 0
c p weight -330 1.0 0
c p weight 331 1.0 0
c p weight -331 1.0 0
c p weight 332 1.0 0
c p weight -332 1.0 0
c p weight 333 1.0 0
c p weight -333 1.0 0
c p weight 334 1.0 0
c p weight -334 1.0 0
c p weight 335 1.0 0
c p weight -335 1.0 0
c p weight 336 1.0 0
c p weight -336 1.0 0
c p weight 337 1.0 0
c p weight -337 1.0 0
c p weight 338 1.0 0
c p weight -338 1.0 0
c p weight 339 1.0 0
c p weight -339 1.0 0
c p weight 340 1.0 0
c p weight -340 1.0 0
c p weight 341 1.0 0
c p weight -341 1.0 0
c p weight 342 1.0 0
c p weight -342 1.0 0
c p weight 343 1.0 0
c p weight -343 1.0 0
c p weight 344 1.0 0
c p weight -344 1.0 0
c p weight 345 1.0 0
c p weight -345 1.0 0
c p weight 346 1.0 0
c p weight -346 1.0 0
c p weight 347 1.0 0
c p weight -347 1.0 0
c p weight 348 1.0 0
c p weight -348 1.0 0
c p weight 349 1.0 0
c p weight -349 1.0 0
c p weight 350 1.0 0
c p weight -350 1.0 0
c p weight 351 1.0 0
c p weight -351 1.0 0
c p weight 352 1.0 0
c p weight -352 1.0 0
c p weight 353 1.0 0
c p weight -353 1.0 0
c p weight 354 1.0 0
c p weight -354 1.0 0
c p weight 355 1.0 0
c p weight -355 1.0 0
c p weight 356 1.0 0
c p weight -356 1.0 0
c p weight 357 1.0 0
c p weight -357 1.0 0
c p weight 358 1.0 0
c p weight -358 1.0 0
c p weight 359 1.0 0
c p weight -359 1.0 0
c p weight 360 1.0 0
c p weight -360 1.0 0
c p weight 361 1.0 0
c p weight -361 1.0 0
c p weight 362 1.0 0
c p weight -362 1.0 0
c p weight 363 1.0 0
c p weight -363 1.0 0
c p weight 364 1.0 0
c p weight -364 1.0 0
c p weight 365 1.0 0
c p weight -365 1.0 0
c p weight 366 1.0 0
c p weight -366 1.0 0
c p weight 367 1.0 0
c p weight -367 1.0 0
c p weight 368 1.0 0
c p weight -368 1.0 0
c p weight 369 1.0 0
c p weight -369 1.0 0
c p weight 370 1.0 0
c p weight -370 1.0 0
c p weight 371 1.0 0
c p weight -371 1.0 0
c p weight 372 1.0 0
c p weight -372 1.0 0
c p weight 373 1.0 0
c p weight -373 1.0 0
c p weight 374 1.0 0
c p weight -374 1.0 0
c p weight 375 1.0 0
c p weight -375 1.0 0
c p weight 376 1.0 0
c p weight -376 1.0 0
c p weight 377 1.0 0
c p weight -377 1.0 0
c p weight 378 1.0 0
c p weight -378 1.0 0
c p weight 379 1.0 0
c p weight -379 1.0 0
c p weight 380 1.0 0
c p weight -380 1.0 0
c p weight 381 1.0 0
c p weight -381 1.0 0
c p weight 382 1.0 0
c p weight -382 1.0 0
c p weight 383 1.0 0
c p weight -383 1.0 0
c p weight 384 1.0 0
c p weight -384 1.0 0
c p weight 385 1.0 0
c p weight -385 1.0 0
c p weight 386 1.0 0
c p weight -386 1.0 0
c p weight 387 1.0 0
c p weight -387 1.0 0
c p weight 388 1.0 0
c p weight -388 1.0 0
c p weight 389 1.0 0
c p weight -389 1.0 0
c p weight 390 1.0 0
c p weight -390 1.0 0
c p weight 391 1.0 0
c p weight -391 1.0 0
c p weight 392 1.0 0
c p weight -392 1.0 0
c p weight 393 1.0 0
c p weight -393 1.0 0
c p weight 394 1.0 0
c p weight -394 1.0 0
c p weight 395 1.0 0
c p weight -395 1.0 0
c p weight 396 1.0 0
c p weight -396 1.0 0
c p weight 397 1.0 0
c p weight -397 1.0 0
c p weight 398 1.0 0
c p weight -398 1.0 0
c p weight 399 1.0 0
c p weight -399 1.0 0
c p weight 400 1.0 0
c p weight -400 1.0 0
c p weight 401 1.0 0
c p weight -401 1.0 0
c p weight 402 1.0 0
c p weight -402 1.0 0
c p weight 403 1.0 0
c p weight -403 1.0 0
c p weight 404 1.0 0
c p weight -404 1.0 0
c p weight 405 1.0 0
c p weight -405 1.0 0
c p weight 406 1.0 0
c p weight -406 1.0 0
c p weight 407 1.0 0
c p weight -407 1.0 0
c p weight 408 1.0 0
c p weight -408 1.0 0
c p weight 409 1.0 0
c p weight -409 1.0 0
c p weight 410 1.0 0
c p weight -410 1.0 0
c p weight 411 1.0 0
c p weight -411 1.0 0
c p weight 412 1.0 0
c p weight -412 1.0 0
c p weight 413 1.0 0
c p weight -413 1.0 0
c p weight 414 1.0 0
c p weight -414 1.0 0
c p weight 415 1.0 0
c p weight -415 1.0 0
c p weight 416 1.0 0
c p weight -416 1.0 0
c p weight 417 1.0 0
c p weight -417 1.0 0
c p weight 418 1.0 0
c p weight -418 1.0 0
c p weight 419 1.0 0
c p weight -419 1.0 0
c p weight 420 1.0 0
c p weight -420 1.0 0
c p weight 421 1.0 0
c p weight -421 1.0 0
c p weight 422 1.0 0
c p weight -422 1.0 0
c p weight 423 1.0 0
c p weight -423 1.0 0
c p weight 424 1.0 0
c p weight -424 1.0 0
c p weight 425 1.0 0
c p weight -425 1.0 0
c p weight 426 1.0 0
c p weight -426 1.0 0
c p weight 427 1.0 0
c p weight -427 1.0 0
c p weight 428 1.0 0
c p weight -428 1.0 0
c p weight 429 1.0 0
c p weight -429 1.0 0
c p weight 430 1.0 0
c p weight -430 1.0 0
c p weight 431 1.0 0
c p weight -431 1.0 0
c p weight 432 1.0 0
c p weight -432 1.0 0
c p weight 433 1.0 0
c p weight -433 1.0 0
c p weight 434 1.0 0
c p weight -434 1.0 0
c p weight 435 1.0 0
c p weight -435 1.0 0
c p weight 436 1.0 0
c p weight -436 1.0 0
c p weight 437 1.0 0
c p weight -437 1.0 0
c p weight 438 1.0 0
c p weight -438 1.0 0
c p weight 439 1.0 0
c p weight -439 1.0 0
c p weight 440 1.0 0
c p weight -440 1.0 0
c p weight 441 1.0 0
c p weight -441 1.0 0
c p weight 442 1.0 0
c p weight -442 1.0 0
c p weight 443 1.0 0
c p weight -443 1.0 0
c p weight 444 1.0 0
c p weight -444 1.0 0
c p weight 445 1.0 0
c p weight -445 1.0 0
c p weight 446 1.0 0
c p weight -446 1.0 0
c p weight 447 1.0 0
c p weight -447 1.0 0
c p weight 448 1.0 0
c p weight -448 1.0 0
c p weight 449 1.0 0
c p weight -449 1.0 0
c p weight 450 1.0 0
c p weight -450 1.0 0
c p weight 451 1.0 0
c p weight -451 1.0 0
c p weight 452 1.0 0
c p weight -452 1.0 0
c p weight 453 1.0 0
c p weight -453 1.0 0
c p weight 454 1.0 0
c p weight -454 1.0 0
c p semirings aspmc.semirings.probabilistic 0
c p quantify 1 2 3 4 5 6 7 8 9 10 11 12 13 14 15 16 17 18 19 20 21 22 23 24 25 26 27 28 29 30 31 32 33 34 35 36 37 38 39 40 41 42 43 44 45 46 47 48 49 50 51 52 53 54 55 56 57 58 59 60 61 62 63 64 65 66 67 68 69 70 71 72 73 74 75 76 77 78 79 80 81 82 83 84 85 86 87 88 89 90 91 92 93 94 95 96 97 98 99 100 101 102 103 104 105 106 107 108 109 110 111 112 113 114 115 116 117 118 119 120 121 122 123 124 125 126 127 128 129 130 131 132 133 134 135 136 137 138 139 140 141 142 143 144 145 146 147 148 149 150 151 152 153 154 155 156 157 158 159 160 161 162 163 164 165 166 167 168 169 170 171 172 173 174 175 176 177 178 179 180 181 182 183 184 185 186 187 188 189 190 191 192 193 194 195 196 197 198 199 200 201 202 203 204 205 206 207 208 209 210 211 212 213 214 215 216 217 218 219 220 221 222 223 224 225 226 227 228 229 230 231 232 233 234 235 236 237 238 239 240 241 242 243 244 245 246 247 248 249 250 251 252 253 254 255 256 257 258 259 260 261 262 263 264 265 266 267 268 269 270 271 272 273 274 275 276 277 278 279 280 281 282 283 284 285 286 287 288 289 290 291 292 293 294 295 296 297 298 299 300 301 302 303 304 305 306 307 308 309 310 311 312 313 314 315 316 317 318 319 320 321 322 323 324 325 326 327 328 329 330 331 332 333 334 335 336 337 338 339 340 341 342 343 344 345 346 347 348 349 350 351 352 353 354 355 356 357 358 359 360 361 362 363 364 365 366 367 368 369 370 371 372 373 374 375 376 377 378 379 380 381 382 383 384 385 386 387 388 389 390 391 392 393 394 395 396 397 398 399 400 401 402 403 404 405 406 407 408 409 410 411 412 413 414 415 416 417 418 419 420 421 422 423 424 425 426 427 428 429 430 431 432 433 434 435 436 437 438 439 440 441 442 443 444 445 446 447 448 449 450 451 452 453 454 0
c p auxilliary 2 6 9 11 13 16 18 20 22 25 27 29 31 33 36 38 40 42 44 46 49 51 53 55 57 59 61 64 66 68 70 72 74 76 78 81 83 85 87 89 91 93 95 97 100 102 104 106 108 110 112 114 116 118 121 123 125 127 129 131 133 135 137 139 141 144 146 148 150 152 154 156 158 160 162 164 166 169 172 174 176 178 180 182 184 186 188 190 192 195 196 197 198 199 200 201 202 203 204 205 206 207 208 209 210 211 212 213 214 215 216 217 218 219 220 221 222 223 224 225 226 227 228 229 230 231 232 233 234 235 236 237 238 239 240 241 242 243 244 245 246 247 248 249 250 251 252 253 254 255 256 257 258 259 260 261 262 263 264 265 266 267 268 269 270 271 272 273 274 275 276 277 278 279 280 281 282 283 284 285 286 287 288 289 290 291 292 293 294 295 296 297 298 299 300 301 302 303 304 305 306 307 308 309 310 311 312 313 314 315 316 317 318 319 320 321 322 323 324 325 326 327 328 329 330 331 332 333 334 335 336 337 338 339 340 341 342 343 344 345 346 347 348 349 350 351 352 353 354 355 356 357 358 359 360 361 362 363 364 365 366 367 368 369 370 371 372 373 374 375 376 377 378 379 380 381 382 383 384 385 386 387 388 389 390 391 392 393 394 395 396 397 398 399 400 401 402 403 404 405 406 407 408 409 410 411 412 413 414 415 416 417 418 419 420 421 422 423 424 425 426 427 428 429 430 431 432 433 434 435 436 437 438 439 440 441 442 443 444 445 446 447 448 449 450 451 452 453 454 0
